NAME: kroD100.heu.tour
TYPE: TOUR
COMMENT: Heuristic tour (Lin-Kernighan), length 21791.57
DIMENSION: 100
TOUR_SECTION
1
13
79
88
27
24
41
84
73
39
71
93
44
4
43
77
64
59
85
18
6
40
83
3
5
53
60
62
37
19
51
35
30
100
2
48
92
55
87
26
95
56
28
12
47
21
10
9
20
25
82
14
68
33
45
99
31
57
72
76
80
78
65
86
96
16
63
54
91
15
69
46
61
74
7
75
67
36
29
58
22
42
23
8
52
66
38
81
34
11
17
90
89
70
49
98
97
32
94
50
-1
EOF
